(set-option :opt.timeout 300000)
(declare-fun x_1_0 () Bool)
(declare-fun x_0_0 () Bool)
(declare-fun x_1_1 () Bool)
(declare-fun x_0_1 () Bool)
(declare-fun x_1_2 () Bool)
(declare-fun x_0_2 () Bool)
(declare-fun x_1_3 () Bool)
(declare-fun x_0_3 () Bool)
(declare-fun x_1_4 () Bool)
(declare-fun x_0_4 () Bool)
(declare-fun x_1_5 () Bool)
(declare-fun x_0_5 () Bool)
(declare-fun y_0_6_0 () Bool)
(declare-fun y_0_5_0 () Bool)
(declare-fun y_0_4_0 () Bool)
(declare-fun y_0_3_0 () Bool)
(declare-fun y_0_2_0 () Bool)
(declare-fun y_0_1_0 () Bool)
(declare-fun y_0_0_0 () Bool)
(declare-fun y_0_0_6 () Bool)
(declare-fun y_0_0_5 () Bool)
(declare-fun y_0_0_4 () Bool)
(declare-fun y_0_0_3 () Bool)
(declare-fun y_0_0_2 () Bool)
(declare-fun y_0_0_1 () Bool)
(declare-fun y_0_6_1 () Bool)
(declare-fun y_0_5_1 () Bool)
(declare-fun y_0_4_1 () Bool)
(declare-fun y_0_3_1 () Bool)
(declare-fun y_0_2_1 () Bool)
(declare-fun y_0_1_1 () Bool)
(declare-fun y_0_1_6 () Bool)
(declare-fun y_0_1_5 () Bool)
(declare-fun y_0_1_4 () Bool)
(declare-fun y_0_1_3 () Bool)
(declare-fun y_0_1_2 () Bool)
(declare-fun y_0_6_2 () Bool)
(declare-fun y_0_5_2 () Bool)
(declare-fun y_0_4_2 () Bool)
(declare-fun y_0_3_2 () Bool)
(declare-fun y_0_2_2 () Bool)
(declare-fun y_0_2_6 () Bool)
(declare-fun y_0_2_5 () Bool)
(declare-fun y_0_2_4 () Bool)
(declare-fun y_0_2_3 () Bool)
(declare-fun y_0_6_3 () Bool)
(declare-fun y_0_5_3 () Bool)
(declare-fun y_0_4_3 () Bool)
(declare-fun y_0_3_3 () Bool)
(declare-fun y_0_3_6 () Bool)
(declare-fun y_0_3_5 () Bool)
(declare-fun y_0_3_4 () Bool)
(declare-fun y_0_6_4 () Bool)
(declare-fun y_0_5_4 () Bool)
(declare-fun y_0_4_4 () Bool)
(declare-fun y_0_4_6 () Bool)
(declare-fun y_0_4_5 () Bool)
(declare-fun y_0_6_5 () Bool)
(declare-fun y_0_5_5 () Bool)
(declare-fun y_0_5_6 () Bool)
(declare-fun y_1_6_0 () Bool)
(declare-fun y_1_5_0 () Bool)
(declare-fun y_1_4_0 () Bool)
(declare-fun y_1_3_0 () Bool)
(declare-fun y_1_2_0 () Bool)
(declare-fun y_1_1_0 () Bool)
(declare-fun y_1_0_0 () Bool)
(declare-fun y_1_0_6 () Bool)
(declare-fun y_1_0_5 () Bool)
(declare-fun y_1_0_4 () Bool)
(declare-fun y_1_0_3 () Bool)
(declare-fun y_1_0_2 () Bool)
(declare-fun y_1_0_1 () Bool)
(declare-fun y_1_6_1 () Bool)
(declare-fun y_1_5_1 () Bool)
(declare-fun y_1_4_1 () Bool)
(declare-fun y_1_3_1 () Bool)
(declare-fun y_1_2_1 () Bool)
(declare-fun y_1_1_1 () Bool)
(declare-fun y_1_1_6 () Bool)
(declare-fun y_1_1_5 () Bool)
(declare-fun y_1_1_4 () Bool)
(declare-fun y_1_1_3 () Bool)
(declare-fun y_1_1_2 () Bool)
(declare-fun y_1_6_2 () Bool)
(declare-fun y_1_5_2 () Bool)
(declare-fun y_1_4_2 () Bool)
(declare-fun y_1_3_2 () Bool)
(declare-fun y_1_2_2 () Bool)
(declare-fun y_1_2_6 () Bool)
(declare-fun y_1_2_5 () Bool)
(declare-fun y_1_2_4 () Bool)
(declare-fun y_1_2_3 () Bool)
(declare-fun y_1_6_3 () Bool)
(declare-fun y_1_5_3 () Bool)
(declare-fun y_1_4_3 () Bool)
(declare-fun y_1_3_3 () Bool)
(declare-fun y_1_3_6 () Bool)
(declare-fun y_1_3_5 () Bool)
(declare-fun y_1_3_4 () Bool)
(declare-fun y_1_6_4 () Bool)
(declare-fun y_1_5_4 () Bool)
(declare-fun y_1_4_4 () Bool)
(declare-fun y_1_4_6 () Bool)
(declare-fun y_1_4_5 () Bool)
(declare-fun y_1_6_5 () Bool)
(declare-fun y_1_5_5 () Bool)
(declare-fun y_1_5_6 () Bool)
(declare-fun y_0_6_6 () Bool)
(declare-fun y_1_6_6 () Bool)
(declare-fun distance_0 () Real)
(declare-fun distance_1 () Real)
(declare-fun D () Real)
(declare-fun u_0_0 () Int)
(declare-fun u_0_1 () Int)
(declare-fun u_0_2 () Int)
(declare-fun u_0_3 () Int)
(declare-fun u_0_4 () Int)
(declare-fun u_0_5 () Int)
(declare-fun u_1_0 () Int)
(declare-fun u_1_1 () Int)
(declare-fun u_1_2 () Int)
(declare-fun u_1_3 () Int)
(declare-fun u_1_4 () Int)
(declare-fun u_1_5 () Int)
(assert ((_ pbeq 1 1 1) x_0_0 x_1_0))
(assert ((_ pbeq 1 1 1) x_0_1 x_1_1))
(assert ((_ pbeq 1 1 1) x_0_2 x_1_2))
(assert ((_ pbeq 1 1 1) x_0_3 x_1_3))
(assert ((_ pbeq 1 1 1) x_0_4 x_1_4))
(assert ((_ pbeq 1 1 1) x_0_5 x_1_5))
(assert ((_ pble 15 3 2 6 5 4 4) x_0_0 x_0_1 x_0_2 x_0_3 x_0_4 x_0_5))
(assert ((_ pble 10 3 2 6 5 4 4) x_1_0 x_1_1 x_1_2 x_1_3 x_1_4 x_1_5))
(assert (= (+ (ite y_0_0_0 1 0)
      (ite y_0_1_0 1 0)
      (ite y_0_2_0 1 0)
      (ite y_0_3_0 1 0)
      (ite y_0_4_0 1 0)
      (ite y_0_5_0 1 0)
      (ite y_0_6_0 1 0))
   (ite x_0_0 1 0)))
(assert (= (+ (ite y_0_0_0 1 0)
      (ite y_0_0_1 1 0)
      (ite y_0_0_2 1 0)
      (ite y_0_0_3 1 0)
      (ite y_0_0_4 1 0)
      (ite y_0_0_5 1 0)
      (ite y_0_0_6 1 0))
   (ite x_0_0 1 0)))
(assert (= (+ (ite y_0_0_1 1 0)
      (ite y_0_1_1 1 0)
      (ite y_0_2_1 1 0)
      (ite y_0_3_1 1 0)
      (ite y_0_4_1 1 0)
      (ite y_0_5_1 1 0)
      (ite y_0_6_1 1 0))
   (ite x_0_1 1 0)))
(assert (= (+ (ite y_0_1_0 1 0)
      (ite y_0_1_1 1 0)
      (ite y_0_1_2 1 0)
      (ite y_0_1_3 1 0)
      (ite y_0_1_4 1 0)
      (ite y_0_1_5 1 0)
      (ite y_0_1_6 1 0))
   (ite x_0_1 1 0)))
(assert (= (+ (ite y_0_0_2 1 0)
      (ite y_0_1_2 1 0)
      (ite y_0_2_2 1 0)
      (ite y_0_3_2 1 0)
      (ite y_0_4_2 1 0)
      (ite y_0_5_2 1 0)
      (ite y_0_6_2 1 0))
   (ite x_0_2 1 0)))
(assert (= (+ (ite y_0_2_0 1 0)
      (ite y_0_2_1 1 0)
      (ite y_0_2_2 1 0)
      (ite y_0_2_3 1 0)
      (ite y_0_2_4 1 0)
      (ite y_0_2_5 1 0)
      (ite y_0_2_6 1 0))
   (ite x_0_2 1 0)))
(assert (= (+ (ite y_0_0_3 1 0)
      (ite y_0_1_3 1 0)
      (ite y_0_2_3 1 0)
      (ite y_0_3_3 1 0)
      (ite y_0_4_3 1 0)
      (ite y_0_5_3 1 0)
      (ite y_0_6_3 1 0))
   (ite x_0_3 1 0)))
(assert (= (+ (ite y_0_3_0 1 0)
      (ite y_0_3_1 1 0)
      (ite y_0_3_2 1 0)
      (ite y_0_3_3 1 0)
      (ite y_0_3_4 1 0)
      (ite y_0_3_5 1 0)
      (ite y_0_3_6 1 0))
   (ite x_0_3 1 0)))
(assert (= (+ (ite y_0_0_4 1 0)
      (ite y_0_1_4 1 0)
      (ite y_0_2_4 1 0)
      (ite y_0_3_4 1 0)
      (ite y_0_4_4 1 0)
      (ite y_0_5_4 1 0)
      (ite y_0_6_4 1 0))
   (ite x_0_4 1 0)))
(assert (= (+ (ite y_0_4_0 1 0)
      (ite y_0_4_1 1 0)
      (ite y_0_4_2 1 0)
      (ite y_0_4_3 1 0)
      (ite y_0_4_4 1 0)
      (ite y_0_4_5 1 0)
      (ite y_0_4_6 1 0))
   (ite x_0_4 1 0)))
(assert (= (+ (ite y_0_0_5 1 0)
      (ite y_0_1_5 1 0)
      (ite y_0_2_5 1 0)
      (ite y_0_3_5 1 0)
      (ite y_0_4_5 1 0)
      (ite y_0_5_5 1 0)
      (ite y_0_6_5 1 0))
   (ite x_0_5 1 0)))
(assert (= (+ (ite y_0_5_0 1 0)
      (ite y_0_5_1 1 0)
      (ite y_0_5_2 1 0)
      (ite y_0_5_3 1 0)
      (ite y_0_5_4 1 0)
      (ite y_0_5_5 1 0)
      (ite y_0_5_6 1 0))
   (ite x_0_5 1 0)))
(assert (= (+ (ite y_1_0_0 1 0)
      (ite y_1_1_0 1 0)
      (ite y_1_2_0 1 0)
      (ite y_1_3_0 1 0)
      (ite y_1_4_0 1 0)
      (ite y_1_5_0 1 0)
      (ite y_1_6_0 1 0))
   (ite x_1_0 1 0)))
(assert (= (+ (ite y_1_0_0 1 0)
      (ite y_1_0_1 1 0)
      (ite y_1_0_2 1 0)
      (ite y_1_0_3 1 0)
      (ite y_1_0_4 1 0)
      (ite y_1_0_5 1 0)
      (ite y_1_0_6 1 0))
   (ite x_1_0 1 0)))
(assert (= (+ (ite y_1_0_1 1 0)
      (ite y_1_1_1 1 0)
      (ite y_1_2_1 1 0)
      (ite y_1_3_1 1 0)
      (ite y_1_4_1 1 0)
      (ite y_1_5_1 1 0)
      (ite y_1_6_1 1 0))
   (ite x_1_1 1 0)))
(assert (= (+ (ite y_1_1_0 1 0)
      (ite y_1_1_1 1 0)
      (ite y_1_1_2 1 0)
      (ite y_1_1_3 1 0)
      (ite y_1_1_4 1 0)
      (ite y_1_1_5 1 0)
      (ite y_1_1_6 1 0))
   (ite x_1_1 1 0)))
(assert (= (+ (ite y_1_0_2 1 0)
      (ite y_1_1_2 1 0)
      (ite y_1_2_2 1 0)
      (ite y_1_3_2 1 0)
      (ite y_1_4_2 1 0)
      (ite y_1_5_2 1 0)
      (ite y_1_6_2 1 0))
   (ite x_1_2 1 0)))
(assert (= (+ (ite y_1_2_0 1 0)
      (ite y_1_2_1 1 0)
      (ite y_1_2_2 1 0)
      (ite y_1_2_3 1 0)
      (ite y_1_2_4 1 0)
      (ite y_1_2_5 1 0)
      (ite y_1_2_6 1 0))
   (ite x_1_2 1 0)))
(assert (= (+ (ite y_1_0_3 1 0)
      (ite y_1_1_3 1 0)
      (ite y_1_2_3 1 0)
      (ite y_1_3_3 1 0)
      (ite y_1_4_3 1 0)
      (ite y_1_5_3 1 0)
      (ite y_1_6_3 1 0))
   (ite x_1_3 1 0)))
(assert (= (+ (ite y_1_3_0 1 0)
      (ite y_1_3_1 1 0)
      (ite y_1_3_2 1 0)
      (ite y_1_3_3 1 0)
      (ite y_1_3_4 1 0)
      (ite y_1_3_5 1 0)
      (ite y_1_3_6 1 0))
   (ite x_1_3 1 0)))
(assert (= (+ (ite y_1_0_4 1 0)
      (ite y_1_1_4 1 0)
      (ite y_1_2_4 1 0)
      (ite y_1_3_4 1 0)
      (ite y_1_4_4 1 0)
      (ite y_1_5_4 1 0)
      (ite y_1_6_4 1 0))
   (ite x_1_4 1 0)))
(assert (= (+ (ite y_1_4_0 1 0)
      (ite y_1_4_1 1 0)
      (ite y_1_4_2 1 0)
      (ite y_1_4_3 1 0)
      (ite y_1_4_4 1 0)
      (ite y_1_4_5 1 0)
      (ite y_1_4_6 1 0))
   (ite x_1_4 1 0)))
(assert (= (+ (ite y_1_0_5 1 0)
      (ite y_1_1_5 1 0)
      (ite y_1_2_5 1 0)
      (ite y_1_3_5 1 0)
      (ite y_1_4_5 1 0)
      (ite y_1_5_5 1 0)
      (ite y_1_6_5 1 0))
   (ite x_1_5 1 0)))
(assert (= (+ (ite y_1_5_0 1 0)
      (ite y_1_5_1 1 0)
      (ite y_1_5_2 1 0)
      (ite y_1_5_3 1 0)
      (ite y_1_5_4 1 0)
      (ite y_1_5_5 1 0)
      (ite y_1_5_6 1 0))
   (ite x_1_5 1 0)))
(assert (>= (+ (ite x_0_0 1 0)
       (ite x_0_1 1 0)
       (ite x_0_2 1 0)
       (ite x_0_3 1 0)
       (ite x_0_4 1 0)
       (ite x_0_5 1 0))
    1))
(assert (>= (+ (ite x_1_0 1 0)
       (ite x_1_1 1 0)
       (ite x_1_2 1 0)
       (ite x_1_3 1 0)
       (ite x_1_4 1 0)
       (ite x_1_5 1 0))
    1))
(assert (let ((a!1 (ite (> (+ (ite x_0_0 1 0)
                      (ite x_0_1 1 0)
                      (ite x_0_2 1 0)
                      (ite x_0_3 1 0)
                      (ite x_0_4 1 0)
                      (ite x_0_5 1 0))
                   0)
                1
                0)))
  (= (+ (ite y_0_6_0 1 0)
        (ite y_0_6_1 1 0)
        (ite y_0_6_2 1 0)
        (ite y_0_6_3 1 0)
        (ite y_0_6_4 1 0)
        (ite y_0_6_5 1 0))
     a!1)))
(assert (let ((a!1 (ite (> (+ (ite x_0_0 1 0)
                      (ite x_0_1 1 0)
                      (ite x_0_2 1 0)
                      (ite x_0_3 1 0)
                      (ite x_0_4 1 0)
                      (ite x_0_5 1 0))
                   0)
                1
                0)))
  (= (+ (ite y_0_0_6 1 0)
        (ite y_0_1_6 1 0)
        (ite y_0_2_6 1 0)
        (ite y_0_3_6 1 0)
        (ite y_0_4_6 1 0)
        (ite y_0_5_6 1 0))
     a!1)))
(assert (let ((a!1 (ite (> (+ (ite x_1_0 1 0)
                      (ite x_1_1 1 0)
                      (ite x_1_2 1 0)
                      (ite x_1_3 1 0)
                      (ite x_1_4 1 0)
                      (ite x_1_5 1 0))
                   0)
                1
                0)))
  (= (+ (ite y_1_6_0 1 0)
        (ite y_1_6_1 1 0)
        (ite y_1_6_2 1 0)
        (ite y_1_6_3 1 0)
        (ite y_1_6_4 1 0)
        (ite y_1_6_5 1 0))
     a!1)))
(assert (let ((a!1 (ite (> (+ (ite x_1_0 1 0)
                      (ite x_1_1 1 0)
                      (ite x_1_2 1 0)
                      (ite x_1_3 1 0)
                      (ite x_1_4 1 0)
                      (ite x_1_5 1 0))
                   0)
                1
                0)))
  (= (+ (ite y_1_0_6 1 0)
        (ite y_1_1_6 1 0)
        (ite y_1_2_6 1 0)
        (ite y_1_3_6 1 0)
        (ite y_1_4_6 1 0)
        (ite y_1_5_6 1 0))
     a!1)))
(assert (not y_0_0_0))
(assert (not y_0_1_1))
(assert (not y_0_2_2))
(assert (not y_0_3_3))
(assert (not y_0_4_4))
(assert (not y_0_5_5))
(assert (not y_0_6_6))
(assert (not y_1_0_0))
(assert (not y_1_1_1))
(assert (not y_1_2_2))
(assert (not y_1_3_3))
(assert (not y_1_4_4))
(assert (not y_1_5_5))
(assert (not y_1_6_6))
(assert (= distance_0
   (to_real (+ (ite y_0_0_0 0 0)
               (ite y_0_0_1 3 0)
               (ite y_0_0_2 4 0)
               (ite y_0_0_3 5 0)
               (ite y_0_0_4 6 0)
               (ite y_0_0_5 6 0)
               (ite y_0_0_6 2 0)
               (ite y_0_1_0 3 0)
               (ite y_0_1_1 0 0)
               (ite y_0_1_2 1 0)
               (ite y_0_1_3 4 0)
               (ite y_0_1_4 5 0)
               (ite y_0_1_5 7 0)
               (ite y_0_1_6 3 0)
               (ite y_0_2_0 4 0)
               (ite y_0_2_1 1 0)
               (ite y_0_2_2 0 0)
               (ite y_0_2_3 5 0)
               (ite y_0_2_4 6 0)
               (ite y_0_2_5 6 0)
               (ite y_0_2_6 4 0)
               (ite y_0_3_0 4 0)
               (ite y_0_3_1 4 0)
               (ite y_0_3_2 5 0)
               (ite y_0_3_3 0 0)
               (ite y_0_3_4 3 0)
               (ite y_0_3_5 3 0)
               (ite y_0_3_6 2 0)
               (ite y_0_4_0 6 0)
               (ite y_0_4_1 7 0)
               (ite y_0_4_2 8 0)
               (ite y_0_4_3 3 0)
               (ite y_0_4_4 0 0)
               (ite y_0_4_5 2 0)
               (ite y_0_4_6 4 0)
               (ite y_0_5_0 6 0)
               (ite y_0_5_1 7 0)
               (ite y_0_5_2 8 0)
               (ite y_0_5_3 3 0)
               (ite y_0_5_4 2 0)
               (ite y_0_5_5 0 0)
               (ite y_0_5_6 4 0)
               (ite y_0_6_0 2 0)
               (ite y_0_6_1 3 0)
               (ite y_0_6_2 4 0)
               (ite y_0_6_3 3 0)
               (ite y_0_6_4 4 0)
               (ite y_0_6_5 4 0)
               (ite y_0_6_6 0 0)))))
(assert (= distance_1
   (to_real (+ (ite y_1_0_0 0 0)
               (ite y_1_0_1 3 0)
               (ite y_1_0_2 4 0)
               (ite y_1_0_3 5 0)
               (ite y_1_0_4 6 0)
               (ite y_1_0_5 6 0)
               (ite y_1_0_6 2 0)
               (ite y_1_1_0 3 0)
               (ite y_1_1_1 0 0)
               (ite y_1_1_2 1 0)
               (ite y_1_1_3 4 0)
               (ite y_1_1_4 5 0)
               (ite y_1_1_5 7 0)
               (ite y_1_1_6 3 0)
               (ite y_1_2_0 4 0)
               (ite y_1_2_1 1 0)
               (ite y_1_2_2 0 0)
               (ite y_1_2_3 5 0)
               (ite y_1_2_4 6 0)
               (ite y_1_2_5 6 0)
               (ite y_1_2_6 4 0)
               (ite y_1_3_0 4 0)
               (ite y_1_3_1 4 0)
               (ite y_1_3_2 5 0)
               (ite y_1_3_3 0 0)
               (ite y_1_3_4 3 0)
               (ite y_1_3_5 3 0)
               (ite y_1_3_6 2 0)
               (ite y_1_4_0 6 0)
               (ite y_1_4_1 7 0)
               (ite y_1_4_2 8 0)
               (ite y_1_4_3 3 0)
               (ite y_1_4_4 0 0)
               (ite y_1_4_5 2 0)
               (ite y_1_4_6 4 0)
               (ite y_1_5_0 6 0)
               (ite y_1_5_1 7 0)
               (ite y_1_5_2 8 0)
               (ite y_1_5_3 3 0)
               (ite y_1_5_4 2 0)
               (ite y_1_5_5 0 0)
               (ite y_1_5_6 4 0)
               (ite y_1_6_0 2 0)
               (ite y_1_6_1 3 0)
               (ite y_1_6_2 4 0)
               (ite y_1_6_3 3 0)
               (ite y_1_6_4 4 0)
               (ite y_1_6_5 4 0)
               (ite y_1_6_6 0 0)))))
(assert (<= distance_0 D))
(assert (<= distance_1 D))
(assert (>= u_0_0 1))
(assert (<= u_0_0 6))
(assert (>= u_0_1 1))
(assert (<= u_0_1 6))
(assert (>= u_0_2 1))
(assert (<= u_0_2 6))
(assert (>= u_0_3 1))
(assert (<= u_0_3 6))
(assert (>= u_0_4 1))
(assert (<= u_0_4 6))
(assert (>= u_0_5 1))
(assert (<= u_0_5 6))
(assert (>= u_1_0 1))
(assert (<= u_1_0 6))
(assert (>= u_1_1 1))
(assert (<= u_1_1 6))
(assert (>= u_1_2 1))
(assert (<= u_1_2 6))
(assert (>= u_1_3 1))
(assert (<= u_1_3 6))
(assert (>= u_1_4 1))
(assert (<= u_1_4 6))
(assert (>= u_1_5 1))
(assert (<= u_1_5 6))
(assert (let ((a!1 (- (+ u_0_0 1) (* 6 (- 1 (ite y_0_0_1 1 0))))))
  (>= u_0_1 a!1)))
(assert (let ((a!1 (- (+ u_0_0 1) (* 6 (- 1 (ite y_0_0_2 1 0))))))
  (>= u_0_2 a!1)))
(assert (let ((a!1 (- (+ u_0_0 1) (* 6 (- 1 (ite y_0_0_3 1 0))))))
  (>= u_0_3 a!1)))
(assert (let ((a!1 (- (+ u_0_0 1) (* 6 (- 1 (ite y_0_0_4 1 0))))))
  (>= u_0_4 a!1)))
(assert (let ((a!1 (- (+ u_0_0 1) (* 6 (- 1 (ite y_0_0_5 1 0))))))
  (>= u_0_5 a!1)))
(assert (let ((a!1 (- (+ u_0_1 1) (* 6 (- 1 (ite y_0_1_0 1 0))))))
  (>= u_0_0 a!1)))
(assert (let ((a!1 (- (+ u_0_1 1) (* 6 (- 1 (ite y_0_1_2 1 0))))))
  (>= u_0_2 a!1)))
(assert (let ((a!1 (- (+ u_0_1 1) (* 6 (- 1 (ite y_0_1_3 1 0))))))
  (>= u_0_3 a!1)))
(assert (let ((a!1 (- (+ u_0_1 1) (* 6 (- 1 (ite y_0_1_4 1 0))))))
  (>= u_0_4 a!1)))
(assert (let ((a!1 (- (+ u_0_1 1) (* 6 (- 1 (ite y_0_1_5 1 0))))))
  (>= u_0_5 a!1)))
(assert (let ((a!1 (- (+ u_0_2 1) (* 6 (- 1 (ite y_0_2_0 1 0))))))
  (>= u_0_0 a!1)))
(assert (let ((a!1 (- (+ u_0_2 1) (* 6 (- 1 (ite y_0_2_1 1 0))))))
  (>= u_0_1 a!1)))
(assert (let ((a!1 (- (+ u_0_2 1) (* 6 (- 1 (ite y_0_2_3 1 0))))))
  (>= u_0_3 a!1)))
(assert (let ((a!1 (- (+ u_0_2 1) (* 6 (- 1 (ite y_0_2_4 1 0))))))
  (>= u_0_4 a!1)))
(assert (let ((a!1 (- (+ u_0_2 1) (* 6 (- 1 (ite y_0_2_5 1 0))))))
  (>= u_0_5 a!1)))
(assert (let ((a!1 (- (+ u_0_3 1) (* 6 (- 1 (ite y_0_3_0 1 0))))))
  (>= u_0_0 a!1)))
(assert (let ((a!1 (- (+ u_0_3 1) (* 6 (- 1 (ite y_0_3_1 1 0))))))
  (>= u_0_1 a!1)))
(assert (let ((a!1 (- (+ u_0_3 1) (* 6 (- 1 (ite y_0_3_2 1 0))))))
  (>= u_0_2 a!1)))
(assert (let ((a!1 (- (+ u_0_3 1) (* 6 (- 1 (ite y_0_3_4 1 0))))))
  (>= u_0_4 a!1)))
(assert (let ((a!1 (- (+ u_0_3 1) (* 6 (- 1 (ite y_0_3_5 1 0))))))
  (>= u_0_5 a!1)))
(assert (let ((a!1 (- (+ u_0_4 1) (* 6 (- 1 (ite y_0_4_0 1 0))))))
  (>= u_0_0 a!1)))
(assert (let ((a!1 (- (+ u_0_4 1) (* 6 (- 1 (ite y_0_4_1 1 0))))))
  (>= u_0_1 a!1)))
(assert (let ((a!1 (- (+ u_0_4 1) (* 6 (- 1 (ite y_0_4_2 1 0))))))
  (>= u_0_2 a!1)))
(assert (let ((a!1 (- (+ u_0_4 1) (* 6 (- 1 (ite y_0_4_3 1 0))))))
  (>= u_0_3 a!1)))
(assert (let ((a!1 (- (+ u_0_4 1) (* 6 (- 1 (ite y_0_4_5 1 0))))))
  (>= u_0_5 a!1)))
(assert (let ((a!1 (- (+ u_0_5 1) (* 6 (- 1 (ite y_0_5_0 1 0))))))
  (>= u_0_0 a!1)))
(assert (let ((a!1 (- (+ u_0_5 1) (* 6 (- 1 (ite y_0_5_1 1 0))))))
  (>= u_0_1 a!1)))
(assert (let ((a!1 (- (+ u_0_5 1) (* 6 (- 1 (ite y_0_5_2 1 0))))))
  (>= u_0_2 a!1)))
(assert (let ((a!1 (- (+ u_0_5 1) (* 6 (- 1 (ite y_0_5_3 1 0))))))
  (>= u_0_3 a!1)))
(assert (let ((a!1 (- (+ u_0_5 1) (* 6 (- 1 (ite y_0_5_4 1 0))))))
  (>= u_0_4 a!1)))
(assert (let ((a!1 (- (+ u_1_0 1) (* 6 (- 1 (ite y_1_0_1 1 0))))))
  (>= u_1_1 a!1)))
(assert (let ((a!1 (- (+ u_1_0 1) (* 6 (- 1 (ite y_1_0_2 1 0))))))
  (>= u_1_2 a!1)))
(assert (let ((a!1 (- (+ u_1_0 1) (* 6 (- 1 (ite y_1_0_3 1 0))))))
  (>= u_1_3 a!1)))
(assert (let ((a!1 (- (+ u_1_0 1) (* 6 (- 1 (ite y_1_0_4 1 0))))))
  (>= u_1_4 a!1)))
(assert (let ((a!1 (- (+ u_1_0 1) (* 6 (- 1 (ite y_1_0_5 1 0))))))
  (>= u_1_5 a!1)))
(assert (let ((a!1 (- (+ u_1_1 1) (* 6 (- 1 (ite y_1_1_0 1 0))))))
  (>= u_1_0 a!1)))
(assert (let ((a!1 (- (+ u_1_1 1) (* 6 (- 1 (ite y_1_1_2 1 0))))))
  (>= u_1_2 a!1)))
(assert (let ((a!1 (- (+ u_1_1 1) (* 6 (- 1 (ite y_1_1_3 1 0))))))
  (>= u_1_3 a!1)))
(assert (let ((a!1 (- (+ u_1_1 1) (* 6 (- 1 (ite y_1_1_4 1 0))))))
  (>= u_1_4 a!1)))
(assert (let ((a!1 (- (+ u_1_1 1) (* 6 (- 1 (ite y_1_1_5 1 0))))))
  (>= u_1_5 a!1)))
(assert (let ((a!1 (- (+ u_1_2 1) (* 6 (- 1 (ite y_1_2_0 1 0))))))
  (>= u_1_0 a!1)))
(assert (let ((a!1 (- (+ u_1_2 1) (* 6 (- 1 (ite y_1_2_1 1 0))))))
  (>= u_1_1 a!1)))
(assert (let ((a!1 (- (+ u_1_2 1) (* 6 (- 1 (ite y_1_2_3 1 0))))))
  (>= u_1_3 a!1)))
(assert (let ((a!1 (- (+ u_1_2 1) (* 6 (- 1 (ite y_1_2_4 1 0))))))
  (>= u_1_4 a!1)))
(assert (let ((a!1 (- (+ u_1_2 1) (* 6 (- 1 (ite y_1_2_5 1 0))))))
  (>= u_1_5 a!1)))
(assert (let ((a!1 (- (+ u_1_3 1) (* 6 (- 1 (ite y_1_3_0 1 0))))))
  (>= u_1_0 a!1)))
(assert (let ((a!1 (- (+ u_1_3 1) (* 6 (- 1 (ite y_1_3_1 1 0))))))
  (>= u_1_1 a!1)))
(assert (let ((a!1 (- (+ u_1_3 1) (* 6 (- 1 (ite y_1_3_2 1 0))))))
  (>= u_1_2 a!1)))
(assert (let ((a!1 (- (+ u_1_3 1) (* 6 (- 1 (ite y_1_3_4 1 0))))))
  (>= u_1_4 a!1)))
(assert (let ((a!1 (- (+ u_1_3 1) (* 6 (- 1 (ite y_1_3_5 1 0))))))
  (>= u_1_5 a!1)))
(assert (let ((a!1 (- (+ u_1_4 1) (* 6 (- 1 (ite y_1_4_0 1 0))))))
  (>= u_1_0 a!1)))
(assert (let ((a!1 (- (+ u_1_4 1) (* 6 (- 1 (ite y_1_4_1 1 0))))))
  (>= u_1_1 a!1)))
(assert (let ((a!1 (- (+ u_1_4 1) (* 6 (- 1 (ite y_1_4_2 1 0))))))
  (>= u_1_2 a!1)))
(assert (let ((a!1 (- (+ u_1_4 1) (* 6 (- 1 (ite y_1_4_3 1 0))))))
  (>= u_1_3 a!1)))
(assert (let ((a!1 (- (+ u_1_4 1) (* 6 (- 1 (ite y_1_4_5 1 0))))))
  (>= u_1_5 a!1)))
(assert (let ((a!1 (- (+ u_1_5 1) (* 6 (- 1 (ite y_1_5_0 1 0))))))
  (>= u_1_0 a!1)))
(assert (let ((a!1 (- (+ u_1_5 1) (* 6 (- 1 (ite y_1_5_1 1 0))))))
  (>= u_1_1 a!1)))
(assert (let ((a!1 (- (+ u_1_5 1) (* 6 (- 1 (ite y_1_5_2 1 0))))))
  (>= u_1_2 a!1)))
(assert (let ((a!1 (- (+ u_1_5 1) (* 6 (- 1 (ite y_1_5_3 1 0))))))
  (>= u_1_3 a!1)))
(assert (let ((a!1 (- (+ u_1_5 1) (* 6 (- 1 (ite y_1_5_4 1 0))))))
  (>= u_1_4 a!1)))
(assert (>= D 8.0))
(assert (<= D 17.0))
(minimize D)
(check-sat)
(get-model)